
 107    0


   0  45 2 3 4 5 6 7 8 9 10 11 12 13 14 15 16 17 18 19 20 21 22 23 24 25 26 27 28 29 31 34 36 38 39 41 42 43 44 49 50 51 62 63 64 105 106 
   9  21 99 98 91 87 86 85 84 82 80 77 76 75 74 72 71 70 60 56 52 37 32 
   5  20 100 98 95 94 90 88 87 84 81 79 77 74 72 70 69 67 58 53 52 35 
   3  22 96 92 91 89 88 87 84 80 79 77 76 74 73 72 71 70 69 67 58 55 52 40 
   1  12 89 85 84 83 81 76 73 57 53 52 33 30 
   8  20 103 101 93 92 91 83 82 80 79 78 76 75 74 73 71 68 67 66 59 45 
   2  15 89 87 86 85 84 82 81 75 74 73 72 70 67 52 32 
   2  18 97 96 85 82 81 79 78 77 73 72 71 69 67 57 56 54 52 40 
   3  16 104 94 87 85 81 80 79 78 74 72 71 70 69 67 53 40 
   4  15 90 89 87 86 83 82 78 77 75 74 73 71 70 69 40 
   8  13 97 91 88 82 81 80 76 75 69 68 66 46 45 
   1  10 85 84 81 76 74 73 72 65 48 33 
   5  15 96 89 86 85 83 79 75 74 73 72 71 70 67 65 61 
   6  12 93 87 80 79 78 72 71 69 68 54 52 46 
   4  14 102 96 95 93 90 83 79 76 75 74 71 70 65 52 
   3  11 99 95 80 75 74 73 69 68 56 52 45 
   6  10 98 87 86 85 80 78 77 76 47 40 
   8  10 93 90 85 82 78 77 76 71 67 40 
  10  11 91 84 81 76 73 71 70 69 67 65 55 
   5  10 92 88 84 83 77 76 74 68 53 52 
   4   9 81 80 77 75 74 72 66 58 46 
   1  10 86 84 82 78 77 70 69 67 66 53 
   7  10 100 94 75 72 69 68 67 65 57 52 
   8   9 82 80 78 76 74 73 68 65 45 
   5   9 95 88 86 85 81 75 67 66 53 
  10   9 84 83 78 76 74 73 69 65 52 
   7   9 94 90 75 72 70 69 68 67 66 
   8   8 77 74 72 70 69 67 66 54 
   7   8 89 84 83 80 71 69 66 65 
   4   7 75 71 70 69 67 65 55 
   7   7 71 70 69 68 67 66 65 
   3   4 79 78 69 40 
   1   5 92 88 77 68 66 
   7   5 89 76 75 74 65 
   1   4 97 86 71 54 
   2   4 87 76 67 54 
   8   4 81 79 73 67 
   3   4 85 82 80 66 
   6   3 91 88 52 
  10   3 68 66 65 
   2   3 80 75 66 
   7   3 81 79 68 
   8   3 71 66 65 
   7   3 93 79 65 
   7   2 72 70 
   6   2 73 67 
   1   2 68 67 
   5   2 82 67 
   2   2 69 66 
   5   2 86 65 
   8   2 78 66 
   5   1 66 
   8   1 65 
   7   1 65 
   9   1 66 
   7   1 65 
   5   1 66 
   9   1 83 
   7   1 65 
   9   1 90 
   7   1 68 
   5   1 68 
   2   1 67 
   2   1 65 
   6   1 107
   1   1 107
   7   1 107
  10   1 107
   6   1 107
   6   1 107
   7   1 107
   9   1 107
   9   1 107
   5   1 107
   9   1 107
   6   1 107
   4   1 107
   9   1 107
  10   1 107
  10   1 107
   9   1 107
   4   1 107
   3   1 107
   6   1 107
   3   1 107
  10   1 107
   2   1 107
   6   1 107
   9   1 107
   4   1 107
   9   1 107
   7   1 107
   2   1 107
  10   1 107
   5   1 107
   9   1 107
   9   1 107
   7   1 107
  10   1 107
   9   1 107
   6   1 107
   3   1 107
   7   1 107
  10   1 107
   9   1 107
   4   1 107
   0   0 
